************************************************************************
file with basedata            : md381_.bas
initial value random generator: 1878313303
************************************************************************
projects                      :  1
jobs (incl. supersource/sink ):  22
horizon                       :  165
RESOURCES
  - renewable                 :  2   R
  - nonrenewable              :  2   N
  - doubly constrained        :  0   D
************************************************************************
PROJECT INFORMATION:
pronr.  #jobs rel.date duedate tardcost  MPM-Time
    1     20      0       25        9       25
************************************************************************
PRECEDENCE RELATIONS:
jobnr.    #modes  #successors   successors
   1        1          3           2   3   4
   2        3          3          10  13  17
   3        3          1           7
   4        3          3           5   6   8
   5        3          3          13  15  19
   6        3          2           7  20
   7        3          2          12  17
   8        3          3           9  11  16
   9        3          2          15  18
  10        3          2          14  16
  11        3          3          13  14  18
  12        3          1          16
  13        3          1          20
  14        3          2          15  21
  15        3          1          20
  16        3          2          19  21
  17        3          2          18  21
  18        3          1          19
  19        3          1          22
  20        3          1          22
  21        3          1          22
  22        1          0        
************************************************************************
REQUESTS/DURATIONS:
jobnr. mode duration  R 1  R 2  N 1  N 2
------------------------------------------------------------------------
  1      1     0       0    0    0    0
  2      1     7       4    5    7    7
         2     7       4    5    8    6
         3     8       4    5    2    2
  3      1     2       8    6    7    9
         2     5       7    6    5    5
         3    10       5    3    5    5
  4      1     5       5    7    5    9
         2     6       5    7    3    8
         3     8       5    5    3    7
  5      1     7       6    7    9    2
         2     8       5    5    9    2
         3    10       2    2    8    2
  6      1     1       9    3    9    1
         2     7       7    3    5    1
         3     7       8    2    7    1
  7      1     1       7    7    3    6
         2     5       6    6    3    5
         3    10       3    4    3    3
  8      1     5      10   10    8    7
         2     5      10    9    9    8
         3     6      10    7    7    7
  9      1     1       7    7    4    9
         2     3       6    7    4    9
         3     5       6    2    2    8
 10      1     2      10    9    6    6
         2     4       9    7    5    5
         3     5       8    4    5    5
 11      1     2       5   10   10    6
         2     8       4   10    7    5
         3     9       2   10    2    1
 12      1     5       9    8    3    3
         2     9       8    8    3    1
         3     9       8    7    2    2
 13      1     3       9   10    9    9
         2     5       8    7    8    6
         3     9       6    2    8    3
 14      1     6      10    8    7    6
         2     6      10    9    7    5
         3     7       9    7    6    1
 15      1     2       6    8    4    3
         2     9       3    7    3    3
         3    10       1    6    3    3
 16      1     4       4    3    9    4
         2     5       4    3    6    3
         3     8       2    2    6    2
 17      1     1       9    5    3    4
         2     5       9    4    3    4
         3     9       9    3    3    1
 18      1     6       6    5    9    6
         2     8       6    4    7    5
         3     9       6    3    6    4
 19      1     2       7    8    9    6
         2     6       6    8    7    6
         3     9       6    7    2    5
 20      1     2       4    5   10    5
         2     6       3    5    8    4
         3     8       2    4    5    1
 21      1     7       9    7    8    9
         2     8       8    6    7    8
         3     9       7    3    6    8
 22      1     0       0    0    0    0
************************************************************************
RESOURCEAVAILABILITIES:
  R 1  R 2  N 1  N 2
   19   17  141  118
************************************************************************
MAXIMAL LAGS:
from  to  type  delay
    1   22   ES      0
    1    2   ES      0
    2   22   ES      0
    1    3   ES      0
    3   22   ES      0
    1    4   ES      0
    4   22   ES      0
    1    5   ES      0
    5   22   ES      0
    1    6   ES      0
    6   22   ES      0
    1    7   ES      0
    7   22   ES      0
    1    8   ES      0
    8   22   ES      0
    1    9   ES      0
    9   22   ES      0
    1   10   ES      0
   10   22   ES      0
    1   11   ES      0
   11   22   ES      0
    1   12   ES      0
   12   22   ES      0
    1   13   ES      0
   13   22   ES      0
    1   14   ES      0
   14   22   ES      0
    1   15   ES      0
   15   22   ES      0
    1   16   ES      0
   16   22   ES      0
    1   17   ES      0
   17   22   ES      0
    1   18   ES      0
   18   22   ES      0
    1   19   ES      0
   19   22   ES      0
    1   20   ES      0
   20   22   ES      0
    1   21   ES      0
   21   22   ES      0
    1   22   ES      0
    2   10   SS      9
    2   10   SE     -2
    2   10   ES     -7
    2   10   EE     -2
    2   13   SS     -2
    2   13   SE     -5
    2   13   ES     10
    2   13   EE      6
    2   17   SS      0
    2   17   SE     -8
    2   17   ES     -2
    2   17   EE     -1
    3    7   SS      1
    3    7   SE    -10
    3    7   ES     -4
    3    7   EE     -4
    4    5   SS     -9
    4    5   SE     -8
    4    5   ES      9
    4    5   EE     10
    4    6   SS     12
    4    6   SE     10
    4    6   ES     12
    4    6   EE     11
    4    8   SS      6
    4    8   SE      5
    4    8   ES      2
    4    8   EE    -11
    5   13   SS    -10
    5   13   SE    -11
    5   13   ES      7
    5   13   EE     -6
    5   15   SS      9
    5   15   SE     -8
    5   15   ES     -9
    5   15   EE     -2
    5   19   SS     -8
    5   19   SE      6
    5   19   ES     -4
    5   19   EE     -9
    6    7   SS      3
    6    7   SE      1
    6    7   ES     -9
    6    7   EE     -9
    6   20   SS     -9
    6   20   SE     -3
    6   20   ES      4
    6   20   EE     -5
    7   12   SS     -7
    7   12   SE     -4
    7   12   ES     12
    7   12   EE     10
    7   17   SS    -11
    7   17   SE      7
   17    7   SE      0
    7   17   ES      0
    7   17   EE     11
    8    9   SS     -2
    8    9   SE     12
    8    9   ES     -8
    8    9   EE      9
    8   11   SS      1
    8   11   SE    -10
    8   11   ES     -8
    8   11   EE     -9
    8   16   SS      0
    8   16   SE      1
    8   16   ES     10
    8   16   EE      6
    9   15   SS     -3
    9   15   SE      4
    9   15   ES    -10
    9   15   EE     10
    9   18   SS      8
    9   18   SE    -11
    9   18   ES    -12
    9   18   EE    -10
   10   14   SS    -10
   10   14   SE     -7
   10   14   ES     10
   10   14   EE     -6
   10   16   SS     -5
   10   16   SE     10
   10   16   ES    -12
   10   16   EE     -9
   11   13   SS      1
   11   13   SE      2
   11   13   ES      6
   11   13   EE      0
   11   14   SS     -2
   11   14   SE     -1
   11   14   ES      8
   11   14   EE      0
   11   18   SS      8
   11   18   SE      2
   11   18   ES     -5
   11   18   EE     -7
   12   16   SS     -5
   12   16   SE      5
   12   16   ES     11
   12   16   EE      8
   13   20   SS     -6
   13   20   SE      0
   13   20   ES      4
   13   20   EE     -3
   14   15   SS     -9
   14   15   SE     -3
   14   15   ES     -5
   14   15   EE     -3
   14   21   SS     -3
   14   21   SE      0
   14   21   ES     -7
   14   21   EE     -7
   15   20   SS      4
   15   20   SE    -12
   15   20   ES     11
   15   20   EE      3
   16   19   SS     -4
   16   19   SE      9
   16   19   ES      7
   16   19   EE      8
   16   21   SS    -11
   16   21   SE     -2
   16   21   ES     -6
   16   21   EE      4
   17   18   SS      9
   17   18   SE     11
   17   18   ES      6
   17   18   EE     12
   17   21   SS      8
   17   21   SE    -12
   17   21   ES     -2
   17   21   EE     11
   18   19   SS      7
   18   19   SE     -1
   18   19   ES    -12
   18   19   EE      7
************************************************************************
